circuit_heights=[24, 8, 11, 17, 24, 8, 6, 5, 17, 6, 5, 5, 13, 14, 14, 2, 3, 9, 14, 2, 3, 9, 5, 13, 18, 14, 16, 12];
circuit_widths=[9, 9, 9, 9, 4, 4, 1, 1, 4, 3, 3, 12, 12, 14, 2, 2, 8, 8, 12, 12, 6, 6, 2, 2, 3, 3, 3, 3];
max_height=297;
min_height=60;
n_circuits=28;
plate_width=30;
